\* Problem: Unknown *\

Maximize
 obj: + xp_0_0 + xp_0_1 + xp_0_2 + xp_0_3 + xp_0_4 + xp_0_5 + xp_1_0
 + xp_1_1 + xp_1_2 + xp_2_0 + xp_2_1 + xp_2_2 + xp_2_3 + xp_2_4 + xp_3_0
 + xp_3_1 + xp_3_2 + xp_4_0 + xp_5_0 + xp_5_1 + xp_6_0 + xp_6_1 + xp_7_0
 + xp_8_0 + xp_9_0 + xp_10_0 + xp_10_1 + xp_11_0 + xp_11_1 + xp_11_2
 + xp_11_3 + xp_11_4 + xp_12_0 + xp_13_0 + xp_13_1 + xp_14_0 + xp_14_1
 + xp_15_0 + xp_16_0 + xp_17_0 + xp_17_1 + xp_17_2 + xp_18_0 + xp_18_1
 + xp_18_2 + xp_18_3 + xp_19_0 + xp_19_1 + xp_19_2 + xp_20_0 + xp_20_1
 + xp_20_2 + xp_21_0 + xp_21_1 + xp_21_2 + xp_21_3 + xp_22_0 + xp_22_1
 + xp_22_2 + xp_22_3 + xp_22_4 + xp_23_0 + xp_23_1 + xp_23_2

Subject To
 r_1: 0 xp_0_0 <= 26.5090230242688
 r_2: + xp_22_4 + xp_18_3 + xp_5_1 + xp_2_3 <= 26.1838588989845
 r_3: + xp_23_2 + xp_18_2 <= 26.9620253164557
 r_4: + xp_15_0 + xp_0_5 <= 28.3056478405316
 r_5: + xp_18_0 <= 25.9391100702576
 r_6: + xp_18_1 <= 26.9620253164557
 r_7: 0 xp_0_0 <= 26.5090230242688
 r_8: + xp_11_3 + xp_3_2 + xp_2_1 <= 26.1838588989845
 r_9: + xp_11_1 + xp_6_1 + xp_3_1 <= 26.9620253164557
 r_10: + xp_17_2 + xp_3_0 <= 28.3056478405316
 r_11: + xp_18_1 + xp_11_2 <= 25.9391100702576
 r_12: + xp_11_0 <= 26.9620253164557
 r_13: + xp_11_4 <= 28.7484662576687
 r_14: + xp_21_2 + xp_14_0 + xp_0_3 + xp_0_1 <= 26.1838588989845
 r_15: + xp_21_0 + xp_19_2 <= 26.9620253164557
 r_16: + xp_22_2 + xp_21_1 + xp_0_4 + xp_0_2 <= 27.6367006487488
 r_17: + xp_0_0 <= 25.9391100702576
 r_18: + xp_4_0 + xp_0_5 <= 26.5090230242688
 r_19: + xp_19_0 <= 26.5090230242688
 r_20: + xp_21_3 + xp_19_1 + xp_14_1 <= 28.7484662576687
 r_21: + xp_20_1 <= 26.1838588989845
 r_22: + xp_21_3 + xp_21_2 <= 26.9620253164557
 r_23: + xp_22_4 + xp_22_3 <= 27.6367006487488
 r_24: + xp_3_2 + xp_0_3 <= 27.1553784860558
 r_25: 0 xp_0_0 <= 28.7484662576687
 r_26: + xp_18_3 + xp_0_1 <= 25.9391100702576
 r_27: + xp_11_4 + xp_11_3 <= 26.1838588989845
 r_28: + xp_10_1 <= 26.1838588989845
 r_29: + xp_20_2 <= 26.9620253164557
 r_30: + xp_2_0 <= 26.9620253164557
 r_31: + xp_23_2 + xp_18_2 + xp_6_1 + xp_3_1 + xp_2_4
 <= 27.1553784860558
 r_32: + xp_2_2 <= 28.7484662576687
 r_33: + xp_11_1 + xp_2_3 <= 26.9620253164557
 r_34: + xp_19_2 + xp_2_1 <= 26.9620253164557
 r_35: 0 xp_0_0 <= 27.6367006487488
 r_36: + xp_9_0 <= 27.6367006487488
 r_37: + xp_21_1 + xp_13_1 + xp_1_2 <= 27.1553784860558
 r_38: + xp_1_1 + xp_0_4 <= 29.2984869325997
 r_39: + xp_17_1 <= 28.3056478405316
 r_40: + xp_0_2 <= 25.9391100702576
 r_41: + xp_12_0 + xp_2_4 <= 27.1553784860558
 r_42: + xp_21_1 <= 27.1553784860558
 r_43: + xp_16_0 <= 27.1553784860558
 r_44: + xp_23_2 + xp_23_1 + xp_1_2 <= 29.2984869325997
 r_45: + xp_3_2 + xp_3_1 <= 28.3056478405316
 r_46: + xp_18_2 + xp_0_3 <= 25.9391100702576
 r_47: + xp_22_1 + xp_13_1 <= 29.2984869325997
 r_48: + xp_13_0 <= 29.2984869325997
 r_49: 0 xp_0_0 <= 28.3056478405316
 r_50: + xp_0_4 <= 25.9391100702576
 r_51: + xp_1_2 + xp_1_1 <= 28.3056478405316
 r_52: + xp_8_0 <= 28.3056478405316
 r_53: + xp_1_0 <= 28.3056478405316
 r_54: + xp_0_5 <= 25.9391100702576
 r_55: 0 xp_0_0 <= 28.3056478405316
 r_56: 0 xp_0_0 <= 28.3056478405316
 r_57: + xp_22_2 <= 25.9391100702576
 r_58: + xp_22_3 + xp_5_0 <= 25.9391100702576
 r_59: + xp_22_0 + xp_17_1 <= 25.9391100702576
 r_60: + xp_23_1 + xp_6_0 <= 25.9391100702576
 r_61: + xp_23_0 + xp_22_1 <= 25.9391100702576
 r_62: + xp_17_0 <= 25.9391100702576
 r_63: + xp_23_2 + xp_22_4 + xp_11_2 + xp_5_1 <= 25.9391100702576
 r_64: + xp_17_2 + xp_6_1 <= 25.9391100702576
 r_65: + xp_21_3 + xp_20_1 + xp_14_1 + xp_11_4 + xp_10_1 + xp_2_2
 <= 28.7484662576687
 r_66: + xp_20_2 + xp_7_0 <= 28.7484662576687
 r_67: + xp_19_1 + xp_10_0 <= 28.7484662576687
 r_68: + xp_20_0 <= 28.7484662576687

Bounds
 0 <= xp_0_0 <= 27.2265037343223
 0 <= xp_0_1 <= 8.2742484663521
 0 <= xp_0_2 <= 15.3929196674308
 0 <= xp_0_3 <= 1.57163762193758
 0 <= xp_0_4 <= 5.13097322247695
 0 <= xp_0_5 <= 1.57163762193758
 0 <= xp_1_0 <= 19.8767232373568
 0 <= xp_1_1 <= 11.7565476349292
 0 <= xp_1_2 <= 1.49460118997531
 0 <= xp_2_0 <= 21.9260442043605
 0 <= xp_2_1 <= 5.13097322247695
 0 <= xp_2_2 <= 1.40215131445272
 0 <= xp_2_3 <= 2.80430262890544
 0 <= xp_2_4 <= 1.40215131445272
 0 <= xp_3_0 <= 18.2126254779502
 0 <= xp_3_1 <= 0.939901936839772
 0 <= xp_3_2 <= 11.2018483817937
 0 <= xp_4_0 <= 24.6533001393572
 0 <= xp_5_0 <= 14.7919800836143
 0 <= xp_5_1 <= 9.86132005574289
 0 <= xp_6_0 <= 17.7503761003372
 0 <= xp_6_1 <= 4.4375940250843
 0 <= xp_7_0 <= 21.2634713701956
 0 <= xp_8_0 <= 19.1063076080019
 0 <= xp_9_0 <= 17.719559475163
 0 <= xp_10_0 <= 14.1756475801304
 0 <= xp_10_1 <= 3.5439118950326
 0 <= xp_11_0 <= 26.6101712308384
 0 <= xp_11_1 <= 16.3482247858845
 0 <= xp_11_2 <= 6.08627834093059
 0 <= xp_11_3 <= 6.08627834093059
 0 <= xp_11_4 <= 0.955305118453648
 0 <= xp_12_0 <= 16.6409775940661
 0 <= xp_13_0 <= 12.9429825731625
 0 <= xp_13_1 <= 3.23574564329064
 0 <= xp_14_0 <= 12.3266500696786
 0 <= xp_14_1 <= 3.08166251741965
 0 <= xp_15_0 <= 15.2542294612273
 0 <= xp_16_0 <= 14.6378969577434
 0 <= xp_17_0 <= 23.9599414658575
 0 <= xp_17_1 <= 12.0030703743763
 0 <= xp_17_2 <= 6.87209715189938
 0 <= xp_18_0 <= 20.4622185917736
 0 <= xp_18_1 <= 10.2619464449539
 0 <= xp_18_2 <= 5.13097322247695
 0 <= xp_18_3 <= 5.13097322247695
 0 <= xp_19_0 <= 28.6286653107215
 0 <= xp_19_1 <= 8.92139759501023
 0 <= xp_19_2 <= 2.97379919833674
 0 <= xp_20_0 <= 26.1633250348393
 0 <= xp_20_1 <= 10.7704053674085
 0 <= xp_20_2 <= 2.81971607246576
 0 <= xp_21_0 <= 25.485359281007
 0 <= xp_21_1 <= 4.9614663910992
 0 <= xp_21_2 <= 2.4807331955496
 0 <= xp_21_3 <= 5.13097322247695
 0 <= xp_22_0 <= 16.7796472763768
 0 <= xp_22_1 <= 5.13097322247695
 0 <= xp_22_2 <= 2.17256694380763
 0 <= xp_22_3 <= 10.2619464449539
 0 <= xp_22_4 <= 2.17256694380763
 0 <= xp_23_0 <= 24.8690267775231
 0 <= xp_23_1 <= 7.30354016628458
 0 <= xp_23_2 <= 4.34513388761527

End
